
Gurobi 12.0.3 (linux64) logging started Fri Mar 27 19:45:14 2026

Set parameter LogFile to value "/home/solar-wind/WT_Solar_results_bigM100000_thread4/case24_ieee_rts_theta0.15_epsilon0.1_gurobi_seed10000_num_gen38_N_WDR300_load_scaling_factor1_EIFICA_T24_num_Solar5_num_WT10.txt"
Gurobi Optimizer version 12.0.3 build v12.0.3rc0 (linux64 - "Ubuntu 22.04.5 LTS")

CPU model: Intel(R) Xeon(R) Platinum 8378A CPU @ 3.00GHz, instruction set [SSE2|AVX|AVX2|AVX512]
Thread count: 32 physical cores, 64 logical processors, using up to 4 threads

Non-default parameters:
TimeLimit  14400
MIPGap  0.001
Seed  10000
Threads  4

Academic license 2721591 - for non-commercial use only - registered to fa___@mails.neu.edu.cn
Optimize a model with 878228 rows, 2125 columns and 75515848 nonzeros
Model fingerprint: 0xd053c796
Model has 912 quadratic objective terms
Coefficient statistics:
  Matrix range     [5e-07, 7e+01]
  Objective range  [2e+01, 6e+01]
  QObjective range [4e-03, 2e-02]
  Bounds range     [0e+00, 0e+00]
  RHS range        [7e-02, 1e+03]
Presolve removed 602073 rows and 0 columns (presolve time = 6s)...
Presolve removed 602947 rows and 0 columns
Presolve time: 8.22s
Presolved: 275281 rows, 2999 columns, 5907200 nonzeros
Presolved model has 912 quadratic objective terms
Elapsed ordering time = 8s
Elapsed ordering time = 27s
Ordering time: 57.09s
Elapsed ordering time = 59s
Elapsed ordering time = 60s
Elapsed ordering time = 71s
Elapsed ordering time = 75s
Elapsed ordering time = 83s
Elapsed ordering time = 85s
Elapsed ordering time = 96s
Elapsed ordering time = 100s
Elapsed ordering time = 108s
Elapsed ordering time = 110s
Elapsed ordering time = 120s
Elapsed ordering time = 125s
Ordering time: 130.11s

Barrier statistics:
 Dense cols : 1191
 AA' NZ     : 4.295e+08
 Factor NZ  : 1.334e+09 (roughly 10.0 GB of memory)
 Factor Ops : 2.047e+13 (roughly 110 seconds per iteration)
 Threads    : 4

                  Objective                Residual
Iter       Primal          Dual         Primal    Dual     Compl     Time
   0   5.84676681e+08 -3.12643592e+08  3.76e+04 9.91e+02  9.91e+05   310s
   1   5.48377760e+08 -2.85301820e+08  3.60e+04 9.50e+02  9.50e+05   310s
   2   5.43417466e+08 -3.47733787e+08  3.58e+04 9.43e+02  9.47e+05   311s
   3   5.08632868e+08 -4.96097804e+08  3.42e+04 9.00e+02  9.21e+05   311s
   4   4.46612098e+08 -5.94929483e+08  3.13e+04 8.23e+02  8.69e+05   312s
   5   4.00357542e+08 -6.09411317e+08  2.90e+04 7.62e+02  8.06e+05   312s
   6   3.49825695e+08 -7.06557284e+08  2.65e+04 6.92e+02  7.77e+05   313s
   7   3.11113350e+08 -7.30425345e+08  2.43e+04 6.35e+02  7.15e+05   313s
   8   2.82133714e+08 -7.57551868e+08  2.27e+04 5.91e+02  6.66e+05   313s
   9   2.53898675e+08 -7.98861753e+08  2.11e+04 5.46e+02  6.31e+05   313s
  10   2.23187227e+08 -8.31199859e+08  1.92e+04 4.95e+02  5.73e+05   314s
  11   1.97879181e+08 -8.59007914e+08  1.75e+04 4.52e+02  5.23e+05   314s
  12   1.79329057e+08 -8.78081018e+08  1.63e+04 4.18e+02  4.86e+05   314s
  13   1.56904085e+08 -8.98378912e+08  1.46e+04 3.76e+02  4.37e+05   314s
  14   1.38260667e+08 -9.19518376e+08  1.32e+04 3.39e+02  3.95e+05   314s
  15   1.24693194e+08 -9.43072979e+08  1.22e+04 3.11e+02  3.64e+05   315s
  16   1.10735939e+08 -9.63485152e+08  1.11e+04 2.81e+02  3.30e+05   315s
  17   9.90820796e+07 -9.83920954e+08  1.02e+04 2.56e+02  3.01e+05   315s
  18   8.42495545e+07 -1.01342356e+09  8.91e+03 2.23e+02  2.62e+05   315s
  19   7.27806242e+07 -1.04579420e+09  7.90e+03 1.96e+02  2.31e+05   316s
  20   6.22046521e+07 -1.07458061e+09  6.93e+03 1.70e+02  2.02e+05   316s
  21   5.32008605e+07 -1.09899442e+09  6.07e+03 1.48e+02  1.76e+05   316s
  22   4.60464122e+07 -1.11756608e+09  5.35e+03 1.30e+02  1.55e+05   316s
  23   3.96916324e+07 -1.13267479e+09  4.68e+03 1.13e+02  1.36e+05   316s
  24   3.33260233e+07 -1.14454463e+09  4.50e+03 9.64e+01  1.16e+05   317s
  25   2.71676191e+07 -1.15217747e+09  4.08e+03 7.95e+01  9.62e+04   317s
  26   2.18620393e+07 -1.15081304e+09  4.07e+03 6.46e+01  7.87e+04   317s
  27   1.78821666e+07 -1.14040662e+09  3.84e+03 5.31e+01  6.51e+04   317s
  28   1.48563834e+07 -1.12294306e+09  3.62e+03 4.42e+01  5.45e+04   317s
  29   1.04496742e+07 -1.07766849e+09  3.01e+03 3.09e+01  3.88e+04   318s
  30   4.26350300e+06 -9.27422841e+08  1.71e+03 1.18e+01  1.95e+04   318s
  31   3.66733556e+06 -8.65682575e+08  1.45e+03 9.88e+00  1.64e+04   318s
  32   3.18461382e+06 -8.09100476e+08  1.23e+03 8.38e+00  1.40e+04   318s
  33   2.66516017e+06 -7.37887514e+08  9.94e+02 6.77e+00  1.14e+04   318s
  34   2.29261760e+06 -7.08656445e+08  8.09e+02 5.58e+00  9.92e+03   319s
  35   1.91532203e+06 -6.37428013e+08  6.29e+02 4.39e+00  7.87e+03   319s
  36   1.45775037e+06 -6.00894363e+08  3.97e+02 2.87e+00  5.86e+03   319s
  37   1.19760523e+06 -5.09168816e+08  2.71e+02 1.98e+00  4.14e+03   319s
  38   1.02245395e+06 -4.22040727e+08  1.81e+02 1.33e+00  2.87e+03   320s
  39   9.23153073e+05 -3.70614599e+08  1.30e+02 9.44e-01  2.21e+03   320s
  40   8.63864850e+05 -3.29245182e+08  9.77e+01 7.10e-01  1.79e+03   321s
  41   7.93958845e+05 -2.59388706e+08  5.67e+01 4.16e-01  1.23e+03   321s
  42   7.71744472e+05 -2.19872066e+08  4.23e+01 3.09e-01  9.86e+02   322s
  43   7.57089242e+05 -1.89529178e+08  3.23e+01 2.35e-01  8.15e+02   323s
  44   7.50417311e+05 -1.69182728e+08  2.64e+01 1.91e-01  7.08e+02   324s
  45   7.46911004e+05 -1.55988094e+08  2.27e+01 1.65e-01  6.42e+02   325s
  46   7.44030089e+05 -1.42769986e+08  1.92e+01 1.39e-01  5.79e+02   327s
  47   7.42892513e+05 -1.35153671e+08  1.73e+01 1.25e-01  5.43e+02   328s
  48   7.42105376e+05 -1.27174519e+08  1.55e+01 1.12e-01  5.08e+02   331s
  49   7.41541722e+05 -9.45017619e+07  1.04e+01 7.51e-02  3.71e+02   332s
  50   7.38409112e+05 -6.56343871e+07  4.98e+00 3.62e-02  2.51e+02   335s
  51   7.38087152e+05 -4.06187898e+07  1.84e+00 1.09e-02  1.50e+02   337s
  52   7.36847337e+05 -1.68767463e+07  1.68e+00 2.30e-03  6.33e+01   342s
  53   7.32343443e+05 -1.08320299e+06  4.30e-06 2.65e-05  6.50e+00   389s
  54   6.90689954e+05  3.54739670e+05  1.29e-06 7.77e-06  1.20e+00   438s
  55   6.48658246e+05  5.35895273e+05  1.25e-06 6.52e-07  4.04e-01   489s
  56   6.32551990e+05  5.85574982e+05  1.74e-05 7.36e-07  1.68e-01   579s
  57   6.27868824e+05  6.04666510e+05  1.40e-06 5.92e-08  8.31e-02   666s
  58   6.25535993e+05  6.17219626e+05  2.58e-07 1.09e-08  2.98e-02   753s
  59   6.24760845e+05  6.20887296e+05  4.11e-08 1.76e-09  1.39e-02   842s
  60   6.24428829e+05  6.22434880e+05  5.55e-09 2.37e-10  7.14e-03   931s
  61   6.24244918e+05  6.23338473e+05  1.20e-09 1.38e-11  3.25e-03  1019s
  62   6.24165910e+05  6.23722971e+05  1.96e-09 1.13e-10  1.59e-03  1106s
  63   6.24111475e+05  6.23988321e+05  3.69e-10 1.14e-11  4.41e-04  1197s
  64   6.24095286e+05  6.24065413e+05  4.37e-09 2.67e-11  1.07e-04  1289s
  65   6.24090820e+05  6.24086443e+05  3.58e-10 3.62e-12  1.57e-05  1375s
  66   6.24090059e+05  6.24090026e+05  5.31e-09 3.55e-11  1.16e-07  1460s
  67   6.24090057e+05  6.24090034e+05  1.41e-06 1.23e-08  8.39e-08  1544s
  68   6.24090056e+05  6.24090038e+05  1.13e-06 1.99e-08  6.69e-08  1629s
  69   6.24090055e+05  6.24090046e+05  3.31e-06 2.37e-08  3.08e-08  1715s
  70   6.24090054e+05  6.24090046e+05  3.26e-06 2.34e-08  3.03e-08  1800s
  71   6.24090054e+05  6.24090046e+05  3.24e-06 2.33e-08  3.03e-08  1884s
  72   6.24090054e+05  6.24090046e+05  3.12e-06 2.80e-08  2.90e-08  1968s

Barrier solved model in 72 iterations and 1968.11 seconds (2423.30 work units)
Optimal objective 6.24090054e+05

